922528
2 15 71701
15 1 57771
1 26 15288
26 17 12606
17 39 18404
39 18 13572
18 3 26533
3 21 23621
21 23 45980
23 19 65657
19 31 24202
31 4 3290
4 11 38538
11 32 3967
32 25 15458
25 36 14546
36 29 941
29 38 6375
38 30 9087
30 24 7859
24 33 30137
33 22 31609
22 37 7449
37 28 745
28 27 17517
27 12 6411
12 35 26785
35 6 11794
6 20 17005
20 9 5744
9 34 6355
34 10 5412
10 0 8732
0 5 25297
5 8 47658
8 7 54349
7 14 26227
14 16 45489
16 13 42391
13 2 30026
2 2 0
